NAME: A-n36-k5-C12-V2
TYPE: SoftCluVRP
DIMENSION:  36 
VEHICLES:  2 
GVRP_SETS:  12 
CAPACITY:  100 
EDGE_WEIGHT_TYPE: EUC_2D
NODE_COORD_SECTION 
1 15.000000 19.000000
2 1.000000 49.000000
3 87.000000 25.000000
4 69.000000 65.000000
5 93.000000 91.000000
6 33.000000 31.000000
7 71.000000 61.000000
8 29.000000 9.000000
9 93.000000 7.000000
10 55.000000 47.000000
11 23.000000 13.000000
12 19.000000 47.000000
13 57.000000 63.000000
14 5.000000 95.000000
15 65.000000 43.000000
16 69.000000 1.000000
17 3.000000 25.000000
18 19.000000 91.000000
19 21.000000 81.000000
20 67.000000 91.000000
21 41.000000 23.000000
22 19.000000 75.000000
23 15.000000 79.000000
24 79.000000 47.000000
25 19.000000 65.000000
26 27.000000 49.000000
27 29.000000 17.000000
28 25.000000 65.000000
29 59.000000 51.000000
30 27.000000 95.000000
31 21.000000 91.000000
32 61.000000 83.000000
33 15.000000 83.000000
34 31.000000 87.000000
35 71.000000 41.000000
36 91.000000 21.000000
GVRP_SET_SECTION 
 1 5 -1
 2  17 -1
 3  9  3  36 -1
 4  14  33 -1
 5  10  13  15  29 -1
 6  28  22  23  25  26 -1
 7  32  4  20 -1
 8  8  6  11  21  27 -1
 9  16 -1
 10  2  12 -1
 11  24  7  35 -1
 12  34  18  19  30  31 -1
 DEMAND_SECTION
 1 11 
 2 10 
 3 10 
 4 7 
 5 17 
 6 13 
 7 12 
 8 19 
 9 9 
 10 6 
 11 10 
 12 10 
EOF
